3
22
41
40	32
1	3	8	14	5	11	15	5	
2	2	14	8	19	2	
3	3	6	7	4	6	16	2	
4	3	5	11	22	4	21	3	
5	1	25	4	
6	1	32	2	
7	1	9	6	
8	1	8	14	
9	2	8	9	6	9	
10	3	5	8	27	3	26	3	
11	2	14	8	15	2	
12	3	11	6	12	5	14	3	
13	1	28	3	
14	1	26	2	
15	1	4	9	
16	1	4	10	
17	3	8	11	6	10	15	3	
18	3	4	10	11	7	16	5	
19	3	6	10	18	4	22	3	
20	1	9	5	
21	1	19	3	
22	1	7	12	
